(set-logic QF_BV)
(declare-fun _substvar_212_ () Bool)
(declare-fun _substvar_137_ () (_ BitVec 63))
(declare-fun _substvar_130_ () (_ BitVec 63))
(declare-fun _substvar_153_ () (_ BitVec 63))
(declare-fun _substvar_127_ () (_ BitVec 63))
(assert (and true true true true true true true true true true true true true true true true true true true true true true true true true true true true (= _substvar_127_ (_ bv0 63)) (ite _substvar_212_ (= _substvar_130_ (_ bv0 63)) (= _substvar_130_ (concat (_ bv0 62) (bvxor (_ bv0 1) ((_ extract 61 61) _substvar_127_))))) (= _substvar_137_ (concat ((_ extract 61 0) _substvar_130_) (bvxor ((_ extract 62 62) _substvar_130_) ((_ extract 61 61) _substvar_130_)))) (= _substvar_153_ (concat ((_ extract 61 0) _substvar_137_) (_ bv0 1))) true true true (= (= (_ bv0 63) _substvar_153_) false)))
(check-sat)
(exit)
